NAME : rnd33_50.tsp.tsp.opt.tour
TYPE : TOUR
DIMENSION : 50
TOUR_SECTION
1
30
28
32
4
24
38
45
49
22
34
50
11
8
35
39
20
27
21
2
13
47
10
36
19
18
9
14
43
41
3
17
33
37
25
48
16
12
7
29
23
46
6
40
31
26
5
15
42
44
-1